 &control
! calculation type : bands, calculating energy eigenvalues for a specific set of K_POINTS
    calculation = 'bands'
    prefix = './scf-mol'
    pseudo_dir = './'
    outdir = './'
    wf_collect = .true.
    verbosity = 'high'
 /
 &system
    ibrav = 4
    celldm(1) = 4.65303296132007217931
    celldm(3) = 4.87408610885458976441
    nat = 2
    ntyp = 1
    nbnd = 12
    ecutwfc = 30
    ecutrho = 240
    occupations = 'smearing'
    degauss = 0.001
 /
 &electrons
    conv_thr = 1.0e-8
    mixing_beta = 0.5
    mixing_mode = 'local-TF'
    electron_maxstep = 100
 /
ATOMIC_SPECIES
  C   6    C.pbe-rrkjus.UPF
ATOMIC_POSITIONS crystal
C        0.666666666   0.333333333   0.000000000
C        0.333333333   0.666666666   0.000000000
K_POINTS crystal
230
  0.00000000   0.00000000   0.00000000   1
  0.00505051   0.00000000   0.00000000   1
  0.01010101   0.00000000   0.00000000   1
  0.01515152   0.00000000   0.00000000   1
  0.02020202   0.00000000   0.00000000   1
  0.02525252   0.00000000   0.00000000   1
  0.03030303   0.00000000   0.00000000   1
  0.03535353   0.00000000   0.00000000   1
  0.04040404   0.00000000   0.00000000   1
  0.04545455   0.00000000   0.00000000   1
  0.05050505   0.00000000   0.00000000   1
  0.05555556   0.00000000   0.00000000   1
  0.06060606   0.00000000   0.00000000   1
  0.06565657   0.00000000   0.00000000   1
  0.07070707   0.00000000   0.00000000   1
  0.07575758   0.00000000   0.00000000   1
  0.08080808   0.00000000   0.00000000   1
  0.08585858   0.00000000   0.00000000   1
  0.09090909   0.00000000   0.00000000   1
  0.09595960   0.00000000   0.00000000   1
  0.10101010   0.00000000   0.00000000   1
  0.10606061   0.00000000   0.00000000   1
  0.11111111   0.00000000   0.00000000   1
  0.11616161   0.00000000   0.00000000   1
  0.12121212   0.00000000   0.00000000   1
  0.12626262   0.00000000   0.00000000   1
  0.13131313   0.00000000   0.00000000   1
  0.13636364   0.00000000   0.00000000   1
  0.14141414   0.00000000   0.00000000   1
  0.14646465   0.00000000   0.00000000   1
  0.15151516   0.00000000   0.00000000   1
  0.15656565   0.00000000   0.00000000   1
  0.16161616   0.00000000   0.00000000   1
  0.16666667   0.00000000   0.00000000   1
  0.17171717   0.00000000   0.00000000   1
  0.17676768   0.00000000   0.00000000   1
  0.18181819   0.00000000   0.00000000   1
  0.18686868   0.00000000   0.00000000   1
  0.19191919   0.00000000   0.00000000   1
  0.19696970   0.00000000   0.00000000   1
  0.20202020   0.00000000   0.00000000   1
  0.20707071   0.00000000   0.00000000   1
  0.21212122   0.00000000   0.00000000   1
  0.21717171   0.00000000   0.00000000   1
  0.22222222   0.00000000   0.00000000   1
  0.22727273   0.00000000   0.00000000   1
  0.23232323   0.00000000   0.00000000   1
  0.23737374   0.00000000   0.00000000   1
  0.24242425   0.00000000   0.00000000   1
  0.24747474   0.00000000   0.00000000   1
  0.25252524   0.00000000   0.00000000   1
  0.25757575   0.00000000   0.00000000   1
  0.26262626   0.00000000   0.00000000   1
  0.26767677   0.00000000   0.00000000   1
  0.27272728   0.00000000   0.00000000   1
  0.27777779   0.00000000   0.00000000   1
  0.28282827   0.00000000   0.00000000   1
  0.28787878   0.00000000   0.00000000   1
  0.29292929   0.00000000   0.00000000   1
  0.29797980   0.00000000   0.00000000   1
  0.30303031   0.00000000   0.00000000   1
  0.30808082   0.00000000   0.00000000   1
  0.31313130   0.00000000   0.00000000   1
  0.31818181   0.00000000   0.00000000   1
  0.32323232   0.00000000   0.00000000   1
  0.32828283   0.00000000   0.00000000   1
  0.33333334   0.00000000   0.00000000   1
  0.33838382   0.00000000   0.00000000   1
  0.34343433   0.00000000   0.00000000   1
  0.34848484   0.00000000   0.00000000   1
  0.35353535   0.00000000   0.00000000   1
  0.35858586   0.00000000   0.00000000   1
  0.36363637   0.00000000   0.00000000   1
  0.36868685   0.00000000   0.00000000   1
  0.37373737   0.00000000   0.00000000   1
  0.37878788   0.00000000   0.00000000   1
  0.38383839   0.00000000   0.00000000   1
  0.38888890   0.00000000   0.00000000   1
  0.39393941   0.00000000   0.00000000   1
  0.39898989   0.00000000   0.00000000   1
  0.40404040   0.00000000   0.00000000   1
  0.40909091   0.00000000   0.00000000   1
  0.41414142   0.00000000   0.00000000   1
  0.41919193   0.00000000   0.00000000   1
  0.42424244   0.00000000   0.00000000   1
  0.42929292   0.00000000   0.00000000   1
  0.43434343   0.00000000   0.00000000   1
  0.43939394   0.00000000   0.00000000   1
  0.44444445   0.00000000   0.00000000   1
  0.44949496   0.00000000   0.00000000   1
  0.45454547   0.00000000   0.00000000   1
  0.45959595   0.00000000   0.00000000   1
  0.46464646   0.00000000   0.00000000   1
  0.46969697   0.00000000   0.00000000   1
  0.47474748   0.00000000   0.00000000   1
  0.47979799   0.00000000   0.00000000   1
  0.48484850   0.00000000   0.00000000   1
  0.48989898   0.00000000   0.00000000   1
  0.49494949   0.00000000   0.00000000   1
  0.50000000   0.00000000   0.00000000   1
  0.49479166   0.01041667   0.00000000   1
  0.48958334   0.02083333   0.00000000   1
  0.48437500   0.03125000   0.00000000   1
  0.47916666   0.04166667   0.00000000   1
  0.47395834   0.05208334   0.00000000   1
  0.46875000   0.06250000   0.00000000   1
  0.46354166   0.07291667   0.00000000   1
  0.45833334   0.08333334   0.00000000   1
  0.45312500   0.09375000   0.00000000   1
  0.44791669   0.10416667   0.00000000   1
  0.44270834   0.11458334   0.00000000   1
  0.43750000   0.12500000   0.00000000   1
  0.43229169   0.13541667   0.00000000   1
  0.42708334   0.14583334   0.00000000   1
  0.42187500   0.15625000   0.00000000   1
  0.41666669   0.16666667   0.00000000   1
  0.41145834   0.17708334   0.00000000   1
  0.40625000   0.18750000   0.00000000   1
  0.40104169   0.19791667   0.00000000   1
  0.39583334   0.20833334   0.00000000   1
  0.39062500   0.21875000   0.00000000   1
  0.38541669   0.22916667   0.00000000   1
  0.38020834   0.23958334   0.00000000   1
  0.37500000   0.25000000   0.00000000   1
  0.36979169   0.26041669   0.00000000   1
  0.36458334   0.27083334   0.00000000   1
  0.35937500   0.28125000   0.00000000   1
  0.35416669   0.29166669   0.00000000   1
  0.34895834   0.30208334   0.00000000   1
  0.34375000   0.31250000   0.00000000   1
  0.33854169   0.32291669   0.00000000   1
  0.33333334   0.33333334   0.00000000   1
  0.32996634   0.32996634   0.00000000   1
  0.32659933   0.32659933   0.00000000   1
  0.32323232   0.32323232   0.00000000   1
  0.31986532   0.31986532   0.00000000   1
  0.31649834   0.31649834   0.00000000   1
  0.31313133   0.31313133   0.00000000   1
  0.30976433   0.30976433   0.00000000   1
  0.30639732   0.30639732   0.00000000   1
  0.30303031   0.30303031   0.00000000   1
  0.29966331   0.29966331   0.00000000   1
  0.29629630   0.29629630   0.00000000   1
  0.29292929   0.29292929   0.00000000   1
  0.28956228   0.28956228   0.00000000   1
  0.28619528   0.28619528   0.00000000   1
  0.28282830   0.28282830   0.00000000   1
  0.27946129   0.27946129   0.00000000   1
  0.27609429   0.27609429   0.00000000   1
  0.27272728   0.27272728   0.00000000   1
  0.26936027   0.26936027   0.00000000   1
  0.26599327   0.26599327   0.00000000   1
  0.26262626   0.26262626   0.00000000   1
  0.25925928   0.25925928   0.00000000   1
  0.25589228   0.25589228   0.00000000   1
  0.25252527   0.25252527   0.00000000   1
  0.24915826   0.24915826   0.00000000   1
  0.24579126   0.24579126   0.00000000   1
  0.24242425   0.24242425   0.00000000   1
  0.23905724   0.23905724   0.00000000   1
  0.23569024   0.23569024   0.00000000   1
  0.23232323   0.23232323   0.00000000   1
  0.22895624   0.22895624   0.00000000   1
  0.22558923   0.22558923   0.00000000   1
  0.22222222   0.22222222   0.00000000   1
  0.21885523   0.21885523   0.00000000   1
  0.21548823   0.21548823   0.00000000   1
  0.21212122   0.21212122   0.00000000   1
  0.20875421   0.20875421   0.00000000   1
  0.20538720   0.20538720   0.00000000   1
  0.20202021   0.20202021   0.00000000   1
  0.19865321   0.19865321   0.00000000   1
  0.19528620   0.19528620   0.00000000   1
  0.19191919   0.19191919   0.00000000   1
  0.18855219   0.18855219   0.00000000   1
  0.18518519   0.18518519   0.00000000   1
  0.18181819   0.18181819   0.00000000   1
  0.17845118   0.17845118   0.00000000   1
  0.17508417   0.17508417   0.00000000   1
  0.17171717   0.17171717   0.00000000   1
  0.16835018   0.16835018   0.00000000   1
  0.16498317   0.16498317   0.00000000   1
  0.16161616   0.16161616   0.00000000   1
  0.15824915   0.15824915   0.00000000   1
  0.15488216   0.15488216   0.00000000   1
  0.15151516   0.15151516   0.00000000   1
  0.14814815   0.14814815   0.00000000   1
  0.14478114   0.14478114   0.00000000   1
  0.14141414   0.14141414   0.00000000   1
  0.13804714   0.13804714   0.00000000   1
  0.13468014   0.13468014   0.00000000   1
  0.13131313   0.13131313   0.00000000   1
  0.12794612   0.12794612   0.00000000   1
  0.12457913   0.12457913   0.00000000   1
  0.12121212   0.12121212   0.00000000   1
  0.11784512   0.11784512   0.00000000   1
  0.11447811   0.11447811   0.00000000   1
  0.11111110   0.11111110   0.00000000   1
  0.10774411   0.10774411   0.00000000   1
  0.10437711   0.10437711   0.00000000   1
  0.10101010   0.10101010   0.00000000   1
  0.09764309   0.09764309   0.00000000   1
  0.09427610   0.09427610   0.00000000   1
  0.09090909   0.09090909   0.00000000   1
  0.08754209   0.08754209   0.00000000   1
  0.08417508   0.08417508   0.00000000   1
  0.08080807   0.08080807   0.00000000   1
  0.07744107   0.07744107   0.00000000   1
  0.07407406   0.07407406   0.00000000   1
  0.07070708   0.07070708   0.00000000   1
  0.06734008   0.06734008   0.00000000   1
  0.06397307   0.06397307   0.00000000   1
  0.06060606   0.06060606   0.00000000   1
  0.05723906   0.05723906   0.00000000   1
  0.05387205   0.05387205   0.00000000   1
  0.05050504   0.05050504   0.00000000   1
  0.04713804   0.04713804   0.00000000   1
  0.04377103   0.04377103   0.00000000   1
  0.04040405   0.04040405   0.00000000   1
  0.03703704   0.03703704   0.00000000   1
  0.03367004   0.03367004   0.00000000   1
  0.03030303   0.03030303   0.00000000   1
  0.02693602   0.02693602   0.00000000   1
  0.02356902   0.02356902   0.00000000   1
  0.02020201   0.02020201   0.00000000   1
  0.01683500   0.01683500   0.00000000   1
  0.01346800   0.01346800   0.00000000   1
  0.01010099   0.01010099   0.00000000   1
  0.00673401   0.00673401   0.00000000   1
  0.00336701   0.00336701   0.00000000   1
