    
&CONTROL
    calculation = 'scf',
    verbosity ='high',
    prefix = 'al',
    outdir = '.',
    pseudo_dir = '../pseudo',
 /

 &SYSTEM    
    ibrav =  2,
    celldm(1) = 7.65,
    nat =  1,
    ntyp = 1,
    ecutwfc = 12, 
    occupations = 'smearing',
    smearing = 'marzari-vanderbilt',
    degauss = 0.02,
 /

 &ELECTRONS
    mixing_beta = 0.7
 /

ATOMIC_SPECIES
   Al  26.98 Al.pz-vbc.UPF
   
ATOMIC_POSITIONS alat
   Al 0.00 0.00 0.00
   
K_POINTS automatic
   6 6 6 1 1 1

    
