&inputpp 
    prefix = 'al',
    plot_num = 0,
    filplot='al.charge',

/
&plot 
    nfile = 1
    filepp(1)='al.charge'
    weight(1) = 1.0
    iflag = 2
    output_format = 2
    fileout='al.rho100.dat'
    e1(1) =1.0, e1(2)=0.0, e1(3) = 0.0,
    e2(1) =0.0, e2(2)=0.0, e2(3) = 1.0,
    x0(1)=0.0, x0(2)=0.0, x0(3)=0.0,
    nx=56, ny=40

/

